************************************************************************
file with basedata            : md332_.bas
initial value random generator: 75095273
************************************************************************
projects                      :  1
jobs (incl. supersource/sink ):  22
horizon                       :  146
RESOURCES
  - renewable                 :  2   R
  - nonrenewable              :  2   N
  - doubly constrained        :  0   D
************************************************************************
PROJECT INFORMATION:
pronr.  #jobs rel.date duedate tardcost  MPM-Time
    1     20      0       18       19       18
************************************************************************
PRECEDENCE RELATIONS:
jobnr.    #modes  #successors   successors
   1        1          3           2   3   4
   2        3          3           5   7   8
   3        3          3          11  13  16
   4        3          3           6  14  20
   5        3          3          12  15  21
   6        3          3          10  11  13
   7        3          1           9
   8        3          3          11  12  14
   9        3          3          12  13  18
  10        3          2          17  19
  11        3          1          21
  12        3          1          20
  13        3          2          17  19
  14        3          1          17
  15        3          1          16
  16        3          1          18
  17        3          1          21
  18        3          2          19  20
  19        3          1          22
  20        3          1          22
  21        3          1          22
  22        1          0        
************************************************************************
REQUESTS/DURATIONS:
jobnr. mode duration  R 1  R 2  N 1  N 2
------------------------------------------------------------------------
  1      1     0       0    0    0    0
  2      1     1       0    4    0    8
         2     2       7    0    0    8
         3     3       0    4    0    6
  3      1     1       5    0    2    0
         2     3       0    8    0    5
         3     6       2    0    0    4
  4      1     3       0    9    6    0
         2     4       0    8    4    0
         3     7       5    0    0    2
  5      1     1       0    9    9    0
         2     3       0    9    6    0
         3     4       7    0    0    9
  6      1     5       0    9    5    0
         2     6       0    7    5    0
         3     7       8    0    0    6
  7      1     2       0    9    0    5
         2     3       6    0    2    0
         3    10       0    9    2    0
  8      1     3       0    7    0    8
         2     7       8    0   10    0
         3     9       0    5   10    0
  9      1     9       6    0    0    4
         2    10       6    0    0    1
         3    10       0    3    5    0
 10      1     3       0    7    0    6
         2     6       5    0    7    0
         3    10       5    0    0    6
 11      1     1       1    0    8    0
         2     3       0    3    8    0
         3     3       0    3    0    5
 12      1     4       2    0    0    9
         2     5       0    8    6    0
         3     7       0    5    0    9
 13      1     1       8    0    0    6
         2     3       0    4   10    0
         3     4       0    3    8    0
 14      1     7       0    1    0    8
         2     7       0    1    4    0
         3     9       0    1    0    7
 15      1     6       0    8    8    0
         2     8       2    0    8    0
         3    10       2    0    7    0
 16      1     1       0    5    0    2
         2     8       0    5    7    0
         3     9       0    5    6    0
 17      1     1       8    0    0   10
         2     6       0    8    6    0
         3    10       0    8    5    0
 18      1     3       6    0    0    7
         2     5       5    0    9    0
         3     5       4    0   10    0
 19      1     1       0    5    0    7
         2     5       0    2    2    0
         3     6       9    0    0    6
 20      1     2       0    5    8    0
         2     2       9    0    0    5
         3     8       9    0    0    3
 21      1     4       6    0    0    6
         2     8       6    0    0    5
         3     9       0    5    5    0
 22      1     0       0    0    0    0
************************************************************************
RESOURCEAVAILABILITIES:
  R 1  R 2  N 1  N 2
   26   42   64   62
************************************************************************
MAXIMAL LAGS:
from  to  type  delay
    1   22   ES      0
    1    2   ES      0
    2   22   ES      0
    1    3   ES      0
    3   22   ES      0
    1    4   ES      0
    4   22   ES      0
    1    5   ES      0
    5   22   ES      0
    1    6   ES      0
    6   22   ES      0
    1    7   ES      0
    7   22   ES      0
    1    8   ES      0
    8   22   ES      0
    1    9   ES      0
    9   22   ES      0
    1   10   ES      0
   10   22   ES      0
    1   11   ES      0
   11   22   ES      0
    1   12   ES      0
   12   22   ES      0
    1   13   ES      0
   13   22   ES      0
    1   14   ES      0
   14   22   ES      0
    1   15   ES      0
   15   22   ES      0
    1   16   ES      0
   16   22   ES      0
    1   17   ES      0
   17   22   ES      0
    1   18   ES      0
   18   22   ES      0
    1   19   ES      0
   19   22   ES      0
    1   20   ES      0
   20   22   ES      0
    1   21   ES      0
   21   22   ES      0
    1   22   ES      0
    2    5   SS     -2
    2    5   SE      1
    2    5   ES    -11
    2    5   EE      6
    2    7   SS     -5
    2    7   SE     11
    2    7   ES     -8
    2    7   EE    -12
    2    8   SS     -4
    2    8   SE      5
    2    8   ES      6
    2    8   EE      6
    3   11   SS     11
    3   11   SE      1
    3   11   ES     -3
    3   11   EE     -8
    3   13   SS     -6
    3   13   SE     -2
    3   13   ES     -5
    3   13   EE      0
    3   16   SS      6
    3   16   SE     -5
    3   16   ES      3
    3   16   EE      5
    4    6   SS      8
    4    6   SE      9
    4    6   ES     -2
    4    6   EE     -4
    4   14   SS     12
    4   14   SE      3
    4   14   ES     11
    4   14   EE      8
    4   20   SS     11
    4   20   SE      3
    4   20   ES      2
    4   20   EE     -7
    5   12   SS     11
    5   12   SE     -1
    5   12   ES     -7
    5   12   EE     -8
    5   15   SS     11
    5   15   SE      5
    5   15   ES      3
    5   15   EE     -7
    5   21   SS      5
    5   21   SE      8
    5   21   ES    -11
    5   21   EE      4
    6   10   SS    -11
    6   10   SE    -10
    6   10   ES      9
    6   10   EE    -11
    6   11   SS     12
    6   11   SE    -12
    6   11   ES      1
    6   11   EE     -8
    6   13   SS      8
    6   13   SE     -5
    6   13   ES    -10
    6   13   EE     10
    7    9   SS     -8
    7    9   SE    -12
    7    9   ES     -6
    7    9   EE      4
    8   11   SS      2
    8   11   SE     -1
    8   11   ES    -11
    8   11   EE      7
    8   12   SS      8
    8   12   SE      9
    8   12   ES      7
    8   12   EE      3
    8   14   SS      9
    8   14   SE      3
    8   14   ES    -12
    8   14   EE    -12
    9   12   SS      5
    9   12   SE      5
    9   12   ES      1
    9   12   EE    -12
    9   13   SS    -12
    9   13   SE      4
    9   13   ES     11
    9   13   EE     -4
    9   18   SS      5
    9   18   SE     -3
    9   18   ES    -12
    9   18   EE      4
   10   17   SS     10
   10   17   SE      9
   10   17   ES      1
   10   17   EE     -7
   10   19   SS     -9
   10   19   SE     -9
   10   19   ES      4
   10   19   EE     -8
   11   21   SS     -5
   11   21   SE     -6
   11   21   ES      7
   11   21   EE      4
   12   20   SS     -4
   12   20   SE     -1
   12   20   ES     -4
   12   20   EE      0
   13   17   SS    -10
   13   17   SE     -1
   17   13   SE      0
   13   17   ES      0
   13   17   EE      2
   13   19   SS      6
   13   19   SE     -5
   13   19   ES     10
   13   19   EE     -5
   14   17   SS     -3
   14   17   SE      9
   14   17   ES    -10
   14   17   EE      8
   15   16   SS      8
   15   16   SE     12
   15   16   ES    -11
   15   16   EE    -10
   16   18   SS      0
   16   18   SE      0
   16   18   ES      0
   16   18   EE      5
   17   21   SS      3
   17   21   SE    -11
   17   21   ES      8
   17   21   EE    -12
   18   19   SS     10
   18   19   SE     -7
   18   19   ES    -10
   18   19   EE      3
   18   20   SS      1
   18   20   SE      8
   18   20   ES     -2
   18   20   EE      6
************************************************************************
